% Auto-generated by scripts/generate_dzn.py
% problem_type   = regex
% instance       = regex_74
% source_json    = instances_json/2_high_blowup/regex_74.json
% blowup         = 97.11538461538461
% representation = NFA

mode = 1;

var_count = 40;
n_constraints = 2;
Q = 15;
S = 2;
q0 = [1, 1];
F = [{15}, {11}];
weights = [9, 2, 7, 8, 8, 7, 9, 10, 8, 9, 3, 3, 9, 3, 3, 3, 8, 3, 8, 5, 3, 10, 10, 10, 5, 3, 4, 9, 7, 7, 4, 6, 3, 2, 5, 2, 10, 3, 2, 4];
d_dfa = array3d(1..2, 1..15, 1..2, [
  % k = 1
    0, 0,
    0, 0,
    0, 0,
    0, 0,
    0, 0,
    0, 0,
    0, 0,
    0, 0,
    0, 0,
    0, 0,
    0, 0,
    0, 0,
    0, 0,
    0, 0,
    0, 0,

  % k = 2
    0, 0,
    0, 0,
    0, 0,
    0, 0,
    0, 0,
    0, 0,
    0, 0,
    0, 0,
    0, 0,
    0, 0,
    0, 0,
    0, 0,
    0, 0,
    0, 0,
    0, 0
]);
d_nfa = array3d(1..2, 1..15, 1..2, [
  % k = 1
    {1, 2}, {1},
    {3}, {},
    {4}, {4},
    {5}, {5},
    {6}, {6},
    {7}, {7},
    {8}, {8},
    {9}, {9},
    {10}, {10},
    {11}, {11},
    {12}, {12},
    {13}, {13},
    {14}, {14},
    {15}, {15},
    {}, {},

  % k = 2
    {2}, {1},
    {3}, {2},
    {4}, {3},
    {5}, {4},
    {6}, {5},
    {7}, {6},
    {8}, {7},
    {9}, {8},
    {10}, {9},
    {11}, {10},
    {}, {11},
    {}, {},
    {}, {},
    {}, {},
    {}, {}
]);
